
c turning on binary mode checking

c parsing input formula with 6924 variables and 27954 clauses

c finished parsing, read 12932 bytes from proof file

c detected empty clause; start verification via backward checking

c 1848 of 27954 clauses in core                            

c 98 of 3092 lemmas in core using 25808 resolution steps

c 0 RAT lemmas in core; 2 redundant literals in core lemmas

s VERIFIED

c verification time: 0.059 seconds
